\ Model vert
\ LP format - for model browsing. Use MPS format to capture full model detail.
Minimize
  26612.68997272943 S_coef + 89.51132530888378 Constant + [
   3.956121e+06 S_coef ^2 ] / 2 
Subject To
Bounds
 -1000 <= S_coef <= 1000
 Constant = 1
End
